3 3 2
30 1 42 0 44 1 43 2 7 0 38 1 15 0 8 1 17 0 17 2 7 1 18 0 20 2 30 1 1 0 14 2 28 0 16 2 10 0 44 2 14 0 32 1 10 0 43 2 7 1 49 0 34 1 17 2 6 0 44 1 6 
30 0 14 2 24 0 1 2 2 1 12 0 8 2 42 0 41 1 18 2 1 1 20 2 48 0 41 1 9 2 43 1 16 0 16 1 8 0 46 2 36 1 12 0 42 1 20 2 8 0 23 1 12 2 13 0 38 2 21 0 22 
30 1 27 2 36 1 31 2 33 1 21 0 26 2 24 0 1 1 39 2 26 0 23 1 38 0 15 1 19 2 40 1 30 0 35 2 41 0 11 1 11 2 16 0 16 1 1 2 1 0 8 1 38 0 47 1 13 0 38 2 19 

-------------
